# Solution for model BBER_BBU
# Objective value = 9.8199999999999989e+02
p[BBU_111_B_0_1_21_dep_right,BBU_13_A_0_1_21_arr_right] 0
p[BBU_111_B_0_1_21_dep_right,BBU_111_B_200_2_21_arr_right] 1
p[BBU_13_A_0_1_21_arr_right,BBU_13_A_0_1_21_dep_left] 0
p[BBU_13_A_0_1_21_arr_right,BBU_13_A_200_2_21_arr_right] 1
p[BBU_13_A_0_1_21_dep_left,BBU_112_B_0_1_21_arr_right] 0
p[BBU_13_A_0_1_21_dep_left,BBU_13_A_200_2_21_arr_right] 1
p[BBU_112_B_0_1_21_arr_right,BBU_112_B_0_1_21_dep_right] 1
p[BBU_112_B_0_1_21_arr_right,BBU_112_B_200_2_21_arr_right] 1
p[BBU_112_B_0_1_21_dep_right,henkel_0_S2_W_BBER_BLRD_0_S2_W_BLRD_BBER_0_0_1_12] 1
p[BBU_112_B_0_1_21_dep_right,henkel_0_S2_WI_BBU_BLRD_0_S2_WI_BLRD_BBU_0_0_1_12] 1
p[BBU_112_B_0_1_21_dep_right,BBU_112_B_200_2_21_arr_right] 0
p[henkel_0_S2_W_BBER_BLRD_0_S2_W_BLRD_BBER_0_0_1_12,BBU_111_B_0_1_21_arr_right] 0
p[henkel_0_S2_WI_BBU_BLRD_0_S2_WI_BLRD_BBU_0_0_1_12,BBU_111_B_0_1_21_arr_right] 0
p[BBU_111_B_0_1_21_arr_right,BBU_111_B_0_1_21_dep_right] 0
p[BBU_111_B_0_1_21_arr_right,BBU_111_B_200_2_21_arr_right] 1
p[BBU_111_B_200_2_21_dep_right,BBU_13_A_200_2_21_arr_right] 0
p[BBU_111_B_200_2_21_dep_right,BBU_111_B_0_1_21_arr_right] 0
p[BBU_13_A_200_2_21_arr_right,BBU_13_A_200_2_21_dep_left] 0
p[BBU_13_A_200_2_21_arr_right,BBU_13_A_0_1_21_arr_right] 0
p[BBU_13_A_200_2_21_dep_left,BBU_112_B_200_2_21_arr_right] 0
p[BBU_13_A_200_2_21_dep_left,BBU_13_A_0_1_21_arr_right] 0
p[BBU_112_B_200_2_21_arr_right,BBU_112_B_200_2_21_dep_right] 0
p[BBU_112_B_200_2_21_arr_right,BBU_112_B_0_1_21_arr_right] 0
p[BBU_112_B_200_2_21_dep_right,henkel_0_S2_W_BBER_BLRD_0_S2_W_BLRD_BBER_0_200_2_12] 1
p[BBU_112_B_200_2_21_dep_right,henkel_0_S2_WI_BBU_BLRD_0_S2_WI_BLRD_BBU_0_200_2_12] 1
p[BBU_112_B_200_2_21_dep_right,BBU_112_B_0_1_21_arr_right] 0
p[henkel_0_S2_W_BBER_BLRD_0_S2_W_BLRD_BBER_0_200_2_12,BBU_111_B_200_2_21_arr_right] 0
p[henkel_0_S2_WI_BBU_BLRD_0_S2_WI_BLRD_BBU_0_200_2_12,BBU_111_B_200_2_21_arr_right] 0
p[BBU_111_B_200_2_21_arr_right,BBU_111_B_200_2_21_dep_right] 0
p[BBU_111_B_200_2_21_arr_right,BBU_111_B_0_1_21_arr_right] 0
pi[BBU_111_B_0_1_21_dep_right] 135
pi[BBU_13_A_0_1_21_arr_right] 150
pi[BBU_13_A_0_1_21_dep_left] 184
pi[BBU_112_B_0_1_21_arr_right] 199
pi[BBU_112_B_0_1_21_dep_right] 3.8999999999999972e+01
pi[henkel_0_S2_W_BBER_BLRD_0_S2_W_BLRD_BBER_0_0_1_12] 0
pi[henkel_0_S2_WI_BBU_BLRD_0_S2_WI_BLRD_BBU_0_0_1_12] 0
pi[BBU_111_B_0_1_21_arr_right] 130
pi[BBU_111_B_200_2_21_dep_right] 35
pi[BBU_13_A_200_2_21_arr_right] 50
pi[BBU_13_A_200_2_21_dep_left] 70
pi[BBU_112_B_200_2_21_arr_right] 85
pi[BBU_112_B_200_2_21_dep_right] 139
pi[henkel_0_S2_W_BBER_BLRD_0_S2_W_BLRD_BBER_0_200_2_12] 0
pi[henkel_0_S2_WI_BBU_BLRD_0_S2_WI_BLRD_BBU_0_200_2_12] 0
pi[BBU_111_B_200_2_21_arr_right] 30
y[BBU_111_B_0_1_21_dep_right,BBU_13_A_0_1_21_arr_right] 0
y[BBU_13_A_0_1_21_arr_right,BBU_13_A_0_1_21_dep_left] 14
y[BBU_13_A_0_1_21_dep_left,BBU_112_B_0_1_21_arr_right] 0
y[BBU_112_B_0_1_21_arr_right,BBU_112_B_0_1_21_dep_right] 3.4999999999999972e+01
y[BBU_112_B_0_1_21_dep_right,henkel_0_S2_W_BBER_BLRD_0_S2_W_BLRD_BBER_0_0_1_12] 161
y[BBU_112_B_0_1_21_dep_right,henkel_0_S2_WI_BBU_BLRD_0_S2_WI_BLRD_BBU_0_0_1_12] 0
y[henkel_0_S2_W_BBER_BLRD_0_S2_W_BLRD_BBER_0_0_1_12,BBU_111_B_0_1_21_arr_right] 130
y[henkel_0_S2_WI_BBU_BLRD_0_S2_WI_BLRD_BBU_0_0_1_12,BBU_111_B_0_1_21_arr_right] 0
y[BBU_111_B_0_1_21_arr_right,BBU_111_B_0_1_21_dep_right] 0
y[BBU_111_B_200_2_21_dep_right,BBU_13_A_200_2_21_arr_right] 0
y[BBU_13_A_200_2_21_arr_right,BBU_13_A_200_2_21_dep_left] 0
y[BBU_13_A_200_2_21_dep_left,BBU_112_B_200_2_21_arr_right] 0
y[BBU_112_B_200_2_21_arr_right,BBU_112_B_200_2_21_dep_right] 49
y[BBU_112_B_200_2_21_dep_right,henkel_0_S2_W_BBER_BLRD_0_S2_W_BLRD_BBER_0_200_2_12] 0
y[BBU_112_B_200_2_21_dep_right,henkel_0_S2_WI_BBU_BLRD_0_S2_WI_BLRD_BBU_0_200_2_12] 61
y[henkel_0_S2_W_BBER_BLRD_0_S2_W_BLRD_BBER_0_200_2_12,BBU_111_B_200_2_21_arr_right] 0
y[henkel_0_S2_WI_BBU_BLRD_0_S2_WI_BLRD_BBU_0_200_2_12,BBU_111_B_200_2_21_arr_right] 30
y[BBU_111_B_200_2_21_arr_right,BBU_111_B_200_2_21_dep_right] 0
y_bar[BBU_111_B_0_1_21_dep_right,BBU_13_A_0_1_21_arr_right] 0
y_bar[BBU_13_A_0_1_21_arr_right,BBU_13_A_0_1_21_dep_left] 14
y_bar[BBU_13_A_0_1_21_dep_left,BBU_112_B_0_1_21_arr_right] 0
y_bar[BBU_112_B_0_1_21_arr_right,BBU_112_B_0_1_21_dep_right] 3.4999999999999972e+01
y_bar[BBU_112_B_0_1_21_dep_right,henkel_0_S2_W_BBER_BLRD_0_S2_W_BLRD_BBER_0_0_1_12] 0
y_bar[BBU_112_B_0_1_21_dep_right,henkel_0_S2_WI_BBU_BLRD_0_S2_WI_BLRD_BBU_0_0_1_12] 0
y_bar[henkel_0_S2_W_BBER_BLRD_0_S2_W_BLRD_BBER_0_0_1_12,BBU_111_B_0_1_21_arr_right] 0
y_bar[henkel_0_S2_WI_BBU_BLRD_0_S2_WI_BLRD_BBU_0_0_1_12,BBU_111_B_0_1_21_arr_right] 0
y_bar[BBU_111_B_0_1_21_arr_right,BBU_111_B_0_1_21_dep_right] 0
y_bar[BBU_111_B_200_2_21_dep_right,BBU_13_A_200_2_21_arr_right] 0
y_bar[BBU_13_A_200_2_21_arr_right,BBU_13_A_200_2_21_dep_left] 0
y_bar[BBU_13_A_200_2_21_dep_left,BBU_112_B_200_2_21_arr_right] 0
y_bar[BBU_112_B_200_2_21_arr_right,BBU_112_B_200_2_21_dep_right] 49
y_bar[BBU_112_B_200_2_21_dep_right,henkel_0_S2_W_BBER_BLRD_0_S2_W_BLRD_BBER_0_200_2_12] 0
y_bar[BBU_112_B_200_2_21_dep_right,henkel_0_S2_WI_BBU_BLRD_0_S2_WI_BLRD_BBU_0_200_2_12] 0
y_bar[henkel_0_S2_W_BBER_BLRD_0_S2_W_BLRD_BBER_0_200_2_12,BBU_111_B_200_2_21_arr_right] 0
y_bar[henkel_0_S2_WI_BBU_BLRD_0_S2_WI_BLRD_BBU_0_200_2_12,BBU_111_B_200_2_21_arr_right] 0
y_bar[BBU_111_B_200_2_21_arr_right,BBU_111_B_200_2_21_dep_right] 0
h[BBU_111_B_0_1_21_dep_right,BBU_13_A_0_1_21_arr_right] 1
h[BBU_13_A_0_1_21_arr_right,BBU_13_A_0_1_21_dep_left] 1
h[BBU_13_A_0_1_21_dep_left,BBU_112_B_0_1_21_arr_right] 1
h[BBU_112_B_0_1_21_arr_right,BBU_112_B_0_1_21_dep_right] 1
h[BBU_112_B_0_1_21_dep_right,henkel_0_S2_W_BBER_BLRD_0_S2_W_BLRD_BBER_0_0_1_12] 0
h[BBU_112_B_0_1_21_dep_right,henkel_0_S2_WI_BBU_BLRD_0_S2_WI_BLRD_BBU_0_0_1_12] 1
h[henkel_0_S2_W_BBER_BLRD_0_S2_W_BLRD_BBER_0_0_1_12,BBU_111_B_0_1_21_arr_right] 0
h[henkel_0_S2_WI_BBU_BLRD_0_S2_WI_BLRD_BBU_0_0_1_12,BBU_111_B_0_1_21_arr_right] 1
h[BBU_111_B_0_1_21_arr_right,BBU_111_B_0_1_21_dep_right] 1
h[BBU_111_B_200_2_21_dep_right,BBU_13_A_200_2_21_arr_right] 1
h[BBU_13_A_200_2_21_arr_right,BBU_13_A_200_2_21_dep_left] 1
h[BBU_13_A_200_2_21_dep_left,BBU_112_B_200_2_21_arr_right] 1
h[BBU_112_B_200_2_21_arr_right,BBU_112_B_200_2_21_dep_right] 1
h[BBU_112_B_200_2_21_dep_right,henkel_0_S2_W_BBER_BLRD_0_S2_W_BLRD_BBER_0_200_2_12] 1
h[BBU_112_B_200_2_21_dep_right,henkel_0_S2_WI_BBU_BLRD_0_S2_WI_BLRD_BBU_0_200_2_12] 0
h[henkel_0_S2_W_BBER_BLRD_0_S2_W_BLRD_BBER_0_200_2_12,BBU_111_B_200_2_21_arr_right] 1
h[henkel_0_S2_WI_BBU_BLRD_0_S2_WI_BLRD_BBU_0_200_2_12,BBU_111_B_200_2_21_arr_right] 0
h[BBU_111_B_200_2_21_arr_right,BBU_111_B_200_2_21_dep_right] 1
b[0] 1
b[1] 1
b[2] 0
b[3] 0
b[4] 1
L[BBU_111_B_0_1_21_dep_right,BBU_13_A_0_1_21_arr_right] 0
L[BBU_13_A_0_1_21_arr_right,BBU_13_A_0_1_21_dep_left] 0
L[BBU_13_A_0_1_21_dep_left,BBU_112_B_0_1_21_arr_right] 0
L[BBU_112_B_0_1_21_arr_right,BBU_112_B_0_1_21_dep_right] 0
L[BBU_112_B_0_1_21_dep_right,henkel_0_S2_W_BBER_BLRD_0_S2_W_BLRD_BBER_0_0_1_12] 0
L[BBU_112_B_0_1_21_dep_right,henkel_0_S2_WI_BBU_BLRD_0_S2_WI_BLRD_BBU_0_0_1_12] 0
L[henkel_0_S2_W_BBER_BLRD_0_S2_W_BLRD_BBER_0_0_1_12,BBU_111_B_0_1_21_arr_right] 0
L[henkel_0_S2_WI_BBU_BLRD_0_S2_WI_BLRD_BBU_0_0_1_12,BBU_111_B_0_1_21_arr_right] 0
L[BBU_111_B_0_1_21_arr_right,BBU_111_B_0_1_21_dep_right] 0
L[BBU_111_B_200_2_21_dep_right,BBU_13_A_200_2_21_arr_right] 0
L[BBU_13_A_200_2_21_arr_right,BBU_13_A_200_2_21_dep_left] 0
L[BBU_13_A_200_2_21_dep_left,BBU_112_B_200_2_21_arr_right] 0
L[BBU_112_B_200_2_21_arr_right,BBU_112_B_200_2_21_dep_right] 0
L[BBU_112_B_200_2_21_dep_right,henkel_0_S2_W_BBER_BLRD_0_S2_W_BLRD_BBER_0_200_2_12] 0
L[BBU_112_B_200_2_21_dep_right,henkel_0_S2_WI_BBU_BLRD_0_S2_WI_BLRD_BBU_0_200_2_12] 0
L[henkel_0_S2_W_BBER_BLRD_0_S2_W_BLRD_BBER_0_200_2_12,BBU_111_B_200_2_21_arr_right] 0
L[henkel_0_S2_WI_BBU_BLRD_0_S2_WI_BLRD_BBU_0_200_2_12,BBU_111_B_200_2_21_arr_right] 0
L[BBU_111_B_200_2_21_arr_right,BBU_111_B_200_2_21_dep_right] 0
obj 982
